p tdp 58 112
20 23
51 58
3 43
33 41
52 53
25 57
17 53
5 9
23 56
38 44
13 44
24 31
36 45
15 47
1 3
15 26
2 43
6 27
33 49
28 58
7 11
24 32
9 48
18 54
19 20
12 34
5 39
10 21
37 55
18 22
30 37
8 49
14 29
12 42
35 45
22 40
29 34
16 31
11 49
42 49
30 57
43 49
4 51
17 39
19 30
39 50
21 47
6 21
9 46
2 6
22 43
38 45
32 55
24 39
4 38
28 43
15 25
27 54
38 53
17 55
1 13
27 47
25 43
21 33
28 36
19 48
24 36
7 46
1 43
26 47
43 46
1 38
12 18
8 26
3 29
38 40
16 36
35 41
8 52
23 43
6 55
24 56
33 55
31 32
21 26
33 51
36 56
2 12
19 50
11 57
17 43
16 58
30 40
6 28
43 52
15 19
33 58
5 13
13 14
12 32
34 46
33 36
17 57
20 48
20 24
30 34
5 51
18 49
8 39
35 58
40 41
31 50
